(set-logic QF_S)
(declare-fun var0 () String)
(assert (RegexIn var0 (RegexConcat (RegexPlus (RegexPlus (Str2Reg "00"))) (RegexConcat (RegexUnion (RegexStar (Str2Reg "11")) (RegexStar (Str2Reg "22"))) (RegexConcat (RegexPlus (RegexUnion (Str2Reg "333") (Str2Reg "444"))) (RegexConcat (RegexPlus (RegexUnion (Str2Reg "555") (Str2Reg "66"))) (RegexConcat (RegexUnion (RegexUnion (Str2Reg "77") (Str2Reg "88")) (RegexUnion (Str2Reg "99") (Str2Reg "a"))) (RegexConcat (RegexStar (RegexStar (Str2Reg "b"))) (RegexConcat (RegexUnion (RegexStar (Str2Reg "cc")) (RegexStar (Str2Reg "d"))) (RegexConcat (RegexPlus (RegexStar (Str2Reg "e"))) (RegexConcat (RegexUnion (RegexPlus (Str2Reg "fff")) (RegexPlus (Str2Reg "gg"))) (RegexConcat (RegexStar (RegexStar (Str2Reg "hhh"))) (RegexConcat (RegexStar (RegexUnion (Str2Reg "iii") (Str2Reg "jjj"))) (RegexConcat (RegexUnion (RegexUnion (Str2Reg "k") (Str2Reg "ll")) (RegexUnion (Str2Reg "m") (Str2Reg "nn"))) (RegexConcat (RegexPlus (RegexUnion (Str2Reg "oo") (Str2Reg "p"))) (RegexConcat (RegexPlus (RegexUnion (Str2Reg "q") (Str2Reg "rrr"))) (RegexConcat (RegexPlus (RegexPlus (Str2Reg "s"))) (RegexConcat (RegexUnion (RegexPlus (Str2Reg "t")) (RegexPlus (Str2Reg "uuu"))) (RegexConcat (RegexUnion (RegexPlus (Str2Reg "vv")) (RegexPlus (Str2Reg "www"))) (RegexConcat (RegexUnion (RegexPlus (Str2Reg "xxx")) (RegexPlus (Str2Reg "y"))) (RegexConcat (RegexUnion (RegexUnion (Str2Reg "zz") (Str2Reg "AAA")) (RegexUnion (Str2Reg "BB") (Str2Reg "CC"))) (RegexConcat (RegexUnion (RegexStar (Str2Reg "DDD")) (RegexStar (Str2Reg "E"))) (RegexConcat (RegexPlus (RegexPlus (Str2Reg "FFF"))) (RegexConcat (RegexUnion (RegexUnion (Str2Reg "GGG") (Str2Reg "HH")) (RegexUnion (Str2Reg "II") (Str2Reg "JJJ"))) (RegexConcat (RegexPlus (RegexStar (Str2Reg "KK"))) (RegexConcat (RegexUnion (RegexStar (Str2Reg "LLL")) (RegexStar (Str2Reg "MMM"))) (RegexConcat (RegexStar (RegexPlus (Str2Reg "NNN"))) (RegexConcat (RegexUnion (RegexStar (Str2Reg "OO")) (RegexStar (Str2Reg "P"))) (RegexConcat (RegexStar (RegexPlus (Str2Reg "QQ"))) (RegexConcat (RegexPlus (RegexPlus (Str2Reg "R"))) (RegexConcat (RegexUnion (RegexUnion (Str2Reg "SSS") (Str2Reg "T")) (RegexUnion (Str2Reg "UU") (Str2Reg "VVV"))) (RegexConcat (RegexPlus (RegexPlus (Str2Reg "WW"))) (RegexConcat (RegexPlus (RegexPlus (Str2Reg "X"))) (RegexConcat (RegexUnion (RegexStar (Str2Reg "Y")) (RegexStar (Str2Reg "Z"))) (RegexConcat (RegexUnion (RegexStar (Str2Reg "!!!")) (RegexStar (Str2Reg "\"\""))) (RegexConcat (RegexStar (RegexUnion (Str2Reg "###") (Str2Reg "$$"))) (RegexConcat (RegexUnion (RegexPlus (Str2Reg "%%")) (RegexPlus (Str2Reg "&&"))) (RegexConcat (RegexUnion (RegexUnion (Str2Reg "''") (Str2Reg "(")) (RegexUnion (Str2Reg "))") (Str2Reg "**"))) (RegexConcat (RegexUnion (RegexUnion (Str2Reg "+++") (Str2Reg ",")) (RegexUnion (Str2Reg "-") (Str2Reg "."))) (RegexConcat (RegexPlus (RegexPlus (Str2Reg "/"))) (RegexConcat (RegexStar (RegexUnion (Str2Reg ":") (Str2Reg ";;;"))) (RegexConcat (RegexUnion (RegexUnion (Str2Reg "<") (Str2Reg "=")) (RegexUnion (Str2Reg ">>") (Str2Reg "??"))) (RegexConcat (RegexStar (RegexStar (Str2Reg "@"))) (RegexConcat (RegexPlus (RegexPlus (Str2Reg "[[["))) (RegexConcat (RegexStar (RegexPlus (Str2Reg "\\"))) (RegexConcat (RegexStar (RegexPlus (Str2Reg "]]]"))) (RegexConcat (RegexPlus (RegexUnion (Str2Reg "^") (Str2Reg "_"))) (RegexConcat (RegexPlus (RegexStar (Str2Reg "```"))) (RegexConcat (RegexUnion (RegexStar (Str2Reg "{")) (RegexStar (Str2Reg "|||"))) (RegexConcat (RegexUnion (RegexUnion (Str2Reg "}}") (Str2Reg "~")) (RegexUnion (Str2Reg "0") (Str2Reg "111"))) (RegexConcat (RegexPlus (RegexPlus (Str2Reg "222"))) (RegexConcat (RegexPlus (RegexStar (Str2Reg "3"))) (RegexConcat (RegexStar (RegexStar (Str2Reg "4"))) (RegexConcat (RegexPlus (RegexStar (Str2Reg "55"))) (RegexConcat (RegexStar (RegexUnion (Str2Reg "6") (Str2Reg "77"))) (RegexConcat (RegexPlus (RegexPlus (Str2Reg "888"))) (RegexConcat (RegexPlus (RegexUnion (Str2Reg "9") (Str2Reg "aa"))) (RegexConcat (RegexStar (RegexUnion (Str2Reg "b") (Str2Reg "ccc"))) (RegexConcat (RegexStar (RegexPlus (Str2Reg "d"))) (RegexConcat (RegexUnion (RegexUnion (Str2Reg "e") (Str2Reg "fff")) (RegexUnion (Str2Reg "ggg") (Str2Reg "hhh"))) (RegexConcat (RegexUnion (RegexStar (Str2Reg "i")) (RegexStar (Str2Reg "jj"))) (RegexConcat (RegexUnion (RegexUnion (Str2Reg "k") (Str2Reg "ll")) (RegexUnion (Str2Reg "mmm") (Str2Reg "nn"))) (RegexConcat (RegexUnion (RegexUnion (Str2Reg "ooo") (Str2Reg "ppp")) (RegexUnion (Str2Reg "qqq") (Str2Reg "rr"))) (RegexConcat (RegexStar (RegexUnion (Str2Reg "sss") (Str2Reg "t"))) (RegexConcat (RegexStar (RegexPlus (Str2Reg "uu"))) (RegexConcat (RegexUnion (RegexPlus (Str2Reg "v")) (RegexPlus (Str2Reg "www"))) (RegexConcat (RegexUnion (RegexUnion (Str2Reg "xxx") (Str2Reg "y")) (RegexUnion (Str2Reg "zzz") (Str2Reg "AAA"))) (RegexConcat (RegexStar (RegexStar (Str2Reg "BBB"))) (RegexConcat (RegexStar (RegexPlus (Str2Reg "CCC"))) (RegexConcat (RegexStar (RegexStar (Str2Reg "DD"))) (RegexConcat (RegexPlus (RegexUnion (Str2Reg "EE") (Str2Reg "F"))) (RegexConcat (RegexPlus (RegexUnion (Str2Reg "GG") (Str2Reg "H"))) (RegexConcat (RegexStar (RegexPlus (Str2Reg "III"))) (RegexConcat (RegexUnion (RegexPlus (Str2Reg "JJ")) (RegexPlus (Str2Reg "KKK"))) (RegexConcat (RegexStar (RegexUnion (Str2Reg "L") (Str2Reg "M"))) (RegexConcat (RegexStar (RegexPlus (Str2Reg "N"))) (RegexConcat (RegexStar (RegexUnion (Str2Reg "OO") (Str2Reg "PPP"))) (RegexConcat (RegexStar (RegexUnion (Str2Reg "QQQ") (Str2Reg "RR"))) (RegexConcat (RegexStar (RegexPlus (Str2Reg "SS"))) (RegexPlus (RegexPlus (Str2Reg "TT"))))))))))))))))))))))))))))))))))))))))))))))))))))))))))))))))))))))))))))))))))
(check-sat)